(set-logic HORN)
(declare-fun inv ((_ BitVec 32) (_ BitVec 32) (_ BitVec 32) ) Bool)
(assert (forall ((x (_ BitVec 32)) (m (_ BitVec 32)) (n (_ BitVec 32))) 
       (=> ( and ( = x (_ bv0 32) ) ( = m (_ bv0 32) ) ( bvugt n (_ bv0 32) ) ) (inv x m n))))
(assert (forall ((x (_ BitVec 32)) (m (_ BitVec 32)) (n (_ BitVec 32)) (x! (_ BitVec 32)) (m! (_ BitVec 32)) (n! (_ BitVec 32))) 
       (=> (and (inv x m n) ( or ( and ( bvuge x n ) ( = x! x ) ( = m! m ) ( = n! n ) ) ( and ( bvult x n ) ( = x! ( bvadd x (_ bv1 32) ) ) ( = m! x ) ( = n! n ) ) ( and ( bvult x n ) ( = x! ( bvadd x (_ bv1 32) ) ) ( = m! m ) ( = n! n ) ) )) (inv x! m! n!))))
(assert (forall ((x (_ BitVec 32)) (m (_ BitVec 32)) (n (_ BitVec 32))) 
       (=> (inv x m n) ( => ( bvuge x n ) ( or ( bvule n (_ bv0 32) ) ( and ( bvule (_ bv0 32) m ) ( bvult m n ) ) ) ))))
(check-sat)
